17	4	3
25	13	26	25	28	26	27	
0	0	0	0	0	7	5	8	5	5	8	3	2	3	4
6	0	2	2	0	8	4	6	2	6	1	3	8	10	16
1	6	1	7	5	6	8	8	7	1	1	3	5	6	9
4	7	2	5	0	5	10	3	2	7	2	2	13	17
6	0	0	9	0	9	1	8	9	7	9	1	17
150	0	1	0	9	4	3	3	1	8	8	2	7	17
100	0	0	10	0	9	5	2	4	7	8	3	11	12	14
175	0	0	0	1	4	2	6	2	8	6	1	17
50	0	8	10	4	3	3	5	5	5	1	2	15	17
100	0	6	0	3	7	3	1	5	2	8	1	17
225	10	0	3	8	3	5	10	6	6	8	1	17
250	0	5	4	0	4	5	2	6	8	8	2	13	17
10	1	0	5	0	3	2	10	8	4	8	1	17
5	0	0	0	9	3	6	10	8	1	4	1	16
1	8	0	0	9	9	8	7	9	2	8	1	17
5	2	0	0	8	7	5	3	7	10	8	1	17
0	0	0	0	0	4	4	2	5	9	10	0
